c instance by G2
c solution = 011110110010011
c Known solution cost is 743 
p cnf 15 30
w 31 31 58 42 46 35 66 86 17 37 58 40 98 91 7
-9 4 -13 0
-14 -10 7 0
-4 -15 -10 0
-11 10 -13 0
-4 5 -9 0
10 -15 5 0
-7 -2 14 0
2 -12 -9 0
13 -1 -3 0
13 4 -14 0
-3 -8 7 0
10 11 9 0
-5 -12 -3 0
-10 -7 6 0
-14 -5 8 0
12 2 -5 0
12 -14 5 0
15 -11 1 0
-12 8 -7 0
-9 6 -14 0
3 -7 9 0
6 -1 -7 0
-4 8 1 0
-7 3 -8 0
-9 10 -6 0
3 11 5 0
-7 -6 1 0
-4 14 11 0
-2 11 -8 0
9 14 5 0
